NAME : gil262
TYPE : OP
DIMENSION : 262
COST_LIMIT : 357
ROUTE_NODES : 38
ROUTE_SCORE : 2030
ROUTE_COST : 357
NODE_SEQUENCE_SECTION
1
139
202
232
99
108
244
115
145
4
81
186
21
138
72
185
19
79
262
191
30
18
137
257
124
49
12
133
5
211
90
61
129
221
205
31
71
229
-1
DEPOT_SECTION
1
-1
EOF
